p edge 64 512
e 1 28
e 1 24
e 1 57
e 1 4
e 1 5
e 1 19
e 1 17
e 1 26
e 1 61
e 1 34
e 1 14
e 1 12
e 1 6
e 1 8
e 1 30
e 1 20
e 1 18
e 1 59
e 1 55
e 1 31
e 2 26
e 2 64
e 2 31
e 2 17
e 2 11
e 2 51
e 2 49
e 2 59
e 3 49
e 3 8
e 3 46
e 3 38
e 3 34
e 3 44
e 3 13
e 3 9
e 3 36
e 3 32
e 3 17
e 3 7
e 3 4
e 3 61
e 3 29
e 3 15
e 4 12
e 4 32
e 4 24
e 4 29
e 4 37
e 4 44
e 4 8
e 4 6
e 4 59
e 4 18
e 4 11
e 4 36
e 4 19
e 5 49
e 5 38
e 5 17
e 5 31
e 5 41
e 5 47
e 5 20
e 5 36
e 5 29
e 5 53
e 5 54
e 5 28
e 5 62
e 5 34
e 5 32
e 5 48
e 5 57
e 6 58
e 6 23
e 6 60
e 6 43
e 6 56
e 6 57
e 6 39
e 6 33
e 6 48
e 6 29
e 6 41
e 6 17
e 6 10
e 6 26
e 6 38
e 6 16
e 6 44
e 7 24
e 7 36
e 7 31
e 7 57
e 7 38
e 7 20
e 7 32
e 7 25
e 7 26
e 7 11
e 7 42
e 7 16
e 7 45
e 8 10
e 8 9
e 8 17
e 8 26
e 8 27
e 8 41
e 8 61
e 8 31
e 8 60
e 8 49
e 8 64
e 8 51
e 8 13
e 8 62
e 8 20
e 8 50
e 8 35
e 8 55
e 8 37
e 8 14
e 9 33
e 9 39
e 9 44
e 9 62
e 9 55
e 9 17
e 9 59
e 9 50
e 9 41
e 9 63
e 9 12
e 9 45
e 10 59
e 10 18
e 10 27
e 10 23
e 10 25
e 10 31
e 10 45
e 10 17
e 11 57
e 11 16
e 11 17
e 11 33
e 11 38
e 11 20
e 11 12
e 11 59
e 11 15
e 11 44
e 11 55
e 11 53
e 11 23
e 11 29
e 11 41
e 11 58
e 12 56
e 12 38
e 12 55
e 12 26
e 12 47
e 12 23
e 12 21
e 12 44
e 12 22
e 13 16
e 13 36
e 13 63
e 13 37
e 13 47
e 13 22
e 13 28
e 13 61
e 13 52
e 13 26
e 14 42
e 14 15
e 14 48
e 14 53
e 14 34
e 14 64
e 14 24
e 15 27
e 15 56
e 15 33
e 15 51
e 15 50
e 15 45
e 15 44
e 15 64
e 16 62
e 16 48
e 16 22
e 16 54
e 16 43
e 16 34
e 16 28
e 16 47
e 16 63
e 16 45
e 16 42
e 16 27
e 16 40
e 16 49
e 16 24
e 17 38
e 17 58
e 17 60
e 17 55
e 17 23
e 17 49
e 17 46
e 17 34
e 18 46
e 18 36
e 18 64
e 18 47
e 18 43
e 18 48
e 18 32
e 18 38
e 18 33
e 18 37
e 18 45
e 18 27
e 19 54
e 19 28
e 19 23
e 19 45
e 19 43
e 19 34
e 19 63
e 19 25
e 19 62
e 19 53
e 20 57
e 20 60
e 20 35
e 20 36
e 20 23
e 20 53
e 20 41
e 20 58
e 20 40
e 20 55
e 21 28
e 21 37
e 21 43
e 21 50
e 21 33
e 21 52
e 21 56
e 21 36
e 21 30
e 21 63
e 21 24
e 22 43
e 22 37
e 22 48
e 22 47
e 22 54
e 22 27
e 22 24
e 22 23
e 22 44
e 22 32
e 22 64
e 22 52
e 22 61
e 23 62
e 23 26
e 23 25
e 23 32
e 23 47
e 23 63
e 23 59
e 23 56
e 23 39
e 23 33
e 23 40
e 23 46
e 23 36
e 23 31
e 23 54
e 23 34
e 24 50
e 24 30
e 24 63
e 24 49
e 24 33
e 24 27
e 24 56
e 24 41
e 24 60
e 24 62
e 25 57
e 25 38
e 25 49
e 25 54
e 25 30
e 25 48
e 25 63
e 25 58
e 25 42
e 25 56
e 26 53
e 26 29
e 26 42
e 26 38
e 26 62
e 26 33
e 26 51
e 26 31
e 26 41
e 26 59
e 26 64
e 26 30
e 27 32
e 27 33
e 27 42
e 27 64
e 27 40
e 27 36
e 27 48
e 28 30
e 28 36
e 28 62
e 28 54
e 28 39
e 28 32
e 28 38
e 28 51
e 28 59
e 28 33
e 28 64
e 28 37
e 28 42
e 28 46
e 28 48
e 29 60
e 29 56
e 29 53
e 29 36
e 29 48
e 29 55
e 29 61
e 30 41
e 30 48
e 30 58
e 30 64
e 30 51
e 30 46
e 30 55
e 30 32
e 30 57
e 31 44
e 31 39
e 31 47
e 31 49
e 31 58
e 32 53
e 32 34
e 32 37
e 32 36
e 32 35
e 32 64
e 32 46
e 32 33
e 32 63
e 33 36
e 33 60
e 33 57
e 33 43
e 33 52
e 33 47
e 33 44
e 33 34
e 33 37
e 34 39
e 34 55
e 34 64
e 34 56
e 34 52
e 34 58
e 35 47
e 35 63
e 35 60
e 35 44
e 35 38
e 35 57
e 35 61
e 35 40
e 35 55
e 35 50
e 36 61
e 36 62
e 36 51
e 36 58
e 36 57
e 36 43
e 36 59
e 37 43
e 37 57
e 37 56
e 37 63
e 37 60
e 37 62
e 37 48
e 37 45
e 37 52
e 37 58
e 37 53
e 38 40
e 38 51
e 38 63
e 39 45
e 39 51
e 39 42
e 39 54
e 39 46
e 39 64
e 39 60
e 39 53
e 40 54
e 40 44
e 40 46
e 40 56
e 40 53
e 41 53
e 41 50
e 41 64
e 41 42
e 41 57
e 41 49
e 41 60
e 41 45
e 41 58
e 41 56
e 41 63
e 41 59
e 42 52
e 42 45
e 42 58
e 42 49
e 42 48
e 42 46
e 43 51
e 43 59
e 43 48
e 43 63
e 43 54
e 43 50
e 44 58
e 44 55
e 44 64
e 44 50
e 44 51
e 44 52
e 45 52
e 45 49
e 45 64
e 45 55
e 46 51
e 46 48
e 46 50
e 46 63
e 46 56
e 46 52
e 47 62
e 47 60
e 47 58
e 47 56
e 47 53
e 48 52
e 48 53
e 48 56
e 48 59
e 48 54
e 49 59
e 49 61
e 49 52
e 49 62
e 49 51
e 49 50
e 50 62
e 50 55
e 50 60
e 50 59
e 51 53
e 51 54
e 52 61
e 53 62
e 53 60
e 54 55
e 54 57
e 55 62
e 55 63
e 56 59
e 56 63
e 56 64
e 56 61
e 57 62
e 57 59
e 57 58
e 58 59
e 59 61
e 59 60
e 63 64
